
Gurobi 6.5.2 (linux64) logging started Mon Aug 29 10:57:52 2016

Optimize a model with 41 rows, 153 columns and 313 nonzeros
Coefficient statistics:
  Matrix range    [1e+00, 2e+00]
  Objective range [1e+00, 1e+02]
  Bounds range    [1e+00, 1e+00]
  RHS range       [1e+00, 1e+00]
Found heuristic solution: objective 887
Presolve removed 18 rows and 14 columns
Presolve time: 0.00s
Presolved: 23 rows, 139 columns, 280 nonzeros
Variable types: 0 continuous, 139 integer (139 binary)

Root relaxation: objective 3.415000e+02, 30 iterations, 0.00 seconds

    Nodes    |    Current Node    |     Objective Bounds      |     Work
 Expl Unexpl |  Obj  Depth IntInf | Incumbent    BestBd   Gap | It/Node Time

     0     0  341.50000    0    8  887.00000  341.50000  61.5%     -    0s
H    0     0                     447.0000000  341.50000  23.6%     -    0s
H    0     0                     404.0000000  341.50000  15.5%     -    0s
     0     0  349.50000    0   12  404.00000  349.50000  13.5%     -    0s
H    0     0                     358.0000000  349.50000  2.37%     -    0s
H    0     0                     353.0000000  349.50000  0.99%     -    0s

Cutting planes:
  Gomory: 2
  Cover: 4
  Zero half: 2

Explored 0 nodes (37 simplex iterations) in 0.01 seconds
Thread count was 8 (of 8 available processors)

Optimal solution found (tolerance 1.00e-04)
Best objective 3.530000000000e+02, best bound 3.530000000000e+02, gap 0.0%
